# This problem is an example from 
# Linear Optimization course WS-2020/2021 week-4.
# A solution with Excel solver can be found on Moodle.

param n := 3;
param m := 4;

param	C :=
		1	900
		2	540
		3	420;
param	A:	1	2	3	:=
		1	50	20	10	
		2	30	40	50	
		3	1000	500	400
		4	1	1	1	;
param	B :=
		1	32000
		2	40000
		3	720000
		4	1060;					